NAME : RC208
TYPE : CVRPTW
DIMENSION : 3
VEHICLES : 25
CAPACITY : 1000
SERVICE_TIME : 10
EDGE_WEIGHT_TYPE : EUC_2D
NODE_COORD_SECTION
1 40 50
2 45 50
3 50 50
DEMAND_SECTION
1 0
2 20
3 30
TIME_WINDOW_SECTION
1 0 960
2 0 960
3 0 960
DEPOT_SECTION
1 
-1
EOF
